
Gurobi 11.0.0 (win64) logging started Sat Jun 15 10:31:01 2024

Set parameter LogFile to value "./GurobiLog/stage_2_iter_33.log"
Gurobi Optimizer version 11.0.0 build v11.0.0rc2 (win64 - Windows 10.0 (18363.2))

CPU model: Intel(R) Core(TM) i7-8700 CPU @ 3.20GHz, instruction set [SSE2|AVX|AVX2]
Thread count: 6 physical cores, 12 logical processors, using up to 1 threads

Optimize a model with 1514 rows, 20483 columns and 235482 nonzeros
Coefficient statistics:
  Matrix range     [2e-03, 7e+03]
  Objective range  [1e-01, 2e+05]
  Bounds range     [2e+00, 6e+05]
  RHS range        [1e+00, 7e+04]
LP warm-start: use basis
Iteration    Objective       Primal Inf.    Dual Inf.      Time
       0    2.6200331e+04   2.377685e+04   0.000000e+00      0s
     259    2.9917162e+04   0.000000e+00   0.000000e+00      0s

Solved in 259 iterations and 0.04 seconds (0.06 work units)
Optimal objective  2.991716190e+04
